GLPSOL: GLPK LP/MIP Solver, v4.55
Parameter(s) specified in the command line:
 -m tmp.mod
Reading model section from tmp.mod...
Reading data section from tmp.mod...
129 lines were read
Generating obj...
Generating kirhoff...
Generating init_charge...
Generating batt_size...
Model has been successfully generated
GLPK Simplex Optimizer, v4.55
68 rows, 122 columns, 236 non-zeros
Preprocessing...
46 rows, 96 columns, 198 non-zeros
Scaling...
 A: min|aij| =  1.000e+00  max|aij| =  1.000e+00  ratio =  1.000e+00
Problem data seem to be well scaled
Constructing initial basis...
Size of triangular part is 44
      0: obj =   0.000000000e+00  infeas =  1.610e+02 (2)
*    36: obj =   2.000000000e+00  infeas =  0.000e+00 (0)
*    39: obj =   0.000000000e+00  infeas =  0.000e+00 (0)
OPTIMAL LP SOLUTION FOUND
Time used:   0.0 secs
Memory used: 0.3 Mb (340806 bytes)
#OUTPUT:
0
-31 -30 1 -21 -21 -21 0 0 -31 -21 -11 0 -17 -1 9 11 1 
-10 -8 0 2 2 2 0 0 0 2 0 0 0 -2 0 0 2 
-20 -18 -18 0 0 0 0 0 0 0 9 0 0 -2 -9 -9 2 
#OUTPUT END
Model has been successfully processed
